=====UNKNOWN=====
% time elapsed: 1800.02 s
%%%mzn-stat: initTime=0.032367663
%%%mzn-stat: nodes=3249654
%%%mzn-stat: restarts=2518
%%%mzn-stat: peakDepth=1080
%%%mzn-stat: solveTime=1798.516199902
%%%mzn-stat: variables=2601
%%%mzn-stat: propagators=2156
%%%mzn-stat: failures=1789763
%%%mzn-stat: propagations=121402153
%%%mzn-stat: nogoods=1789763
%%%mzn-stat: AverageConflictSize=74.77527415641066
%%%mzn-stat: NumUnitNogoodsLearned=208
%%%mzn-stat: AverageLearnedNogoodLength=94.32731763926286
%%%mzn-stat: AverageBacktrackAmount=0
%%%mzn-stat: AverageLbd=35.83210682084723
%%%mzn-stat-end
